
******************************************************************************
This program contains Ipopt, a library for large-scale nonlinear optimization.
 Ipopt is released as open source code under the Eclipse Public License (EPL).
         For more information visit http://projects.coin-or.org/Ipopt
******************************************************************************

This is Ipopt version 3.12.6, running with linear solver ma57.

Number of nonzeros in equality constraint Jacobian...:    15980
Number of nonzeros in inequality constraint Jacobian.:        0
Number of nonzeros in Lagrangian Hessian.............:    20965

Reallocating memory for MA57: lfact (226464)
Total number of variables............................:     5994
                     variables with only lower bounds:        0
                variables with lower and upper bounds:        0
                     variables with only upper bounds:        0
Total number of equality constraints.................:     3996
Total number of inequality constraints...............:        0
        inequality constraints with only lower bounds:        0
   inequality constraints with lower and upper bounds:        0
        inequality constraints with only upper bounds:        0

iter    objective    inf_pr   inf_du lg(mu)  ||d||  lg(rg) alpha_du alpha_pr  ls
   0  4.6875000e-01 4.79e-01 0.00e+00  -1.0 0.00e+00    -  0.00e+00 0.00e+00   0
   1  5.8699313e-01 3.05e-01 3.65e-01  -1.7 1.82e+00    -  1.00e+00 5.00e-01h  2
   2  5.2829279e-01 7.73e-02 1.25e-01  -1.7 1.19e+00    -  1.00e+00 1.00e+00h  1
   3  5.2312534e-01 2.92e-04 4.67e-02  -2.5 4.35e-02   0.0 1.00e+00 1.00e+00h  1
   4  5.1167169e-01 4.14e-03 2.21e-02  -2.5 3.80e-01    -  1.00e+00 1.00e+00h  1
   5  5.1121353e-01 1.34e-04 8.77e-03  -3.8 2.53e-02  -0.5 1.00e+00 1.00e+00h  1
   6  5.0933645e-01 1.18e-01 8.37e-02  -3.8 8.59e-01    -  1.00e+00 1.00e+00h  1
   7  5.0887889e-01 3.10e-02 3.65e-02  -3.8 6.35e-01    -  1.00e+00 1.00e+00h  1
   8  5.0861198e-01 1.05e-03 6.14e-03  -3.8 2.51e-01    -  1.00e+00 1.00e+00h  1
   9  5.0867578e-01 4.45e-05 3.71e-05  -3.8 2.08e-02    -  1.00e+00 1.00e+00h  1
iter    objective    inf_pr   inf_du lg(mu)  ||d||  lg(rg) alpha_du alpha_pr  ls
  10  5.0867621e-01 1.29e-09 1.05e-09  -5.7 9.03e-05    -  1.00e+00 1.00e+00h  1

Number of Iterations....: 10

                                   (scaled)                 (unscaled)
Objective...............:   5.0867620965762728e-01    5.0867620965762728e-01
Dual infeasibility......:   1.0504218606044446e-09    1.0504218606044446e-09
Constraint violation....:   1.2913208835563239e-09    1.2913208835563239e-09
Complementarity.........:   0.0000000000000000e+00    0.0000000000000000e+00
Overall NLP error.......:   1.2913208835563239e-09    1.2913208835563239e-09


Number of objective function evaluations             = 13
Number of objective gradient evaluations             = 11
Number of equality constraint evaluations            = 13
Number of inequality constraint evaluations          = 0
Number of equality constraint Jacobian evaluations   = 11
Number of inequality constraint Jacobian evaluations = 0
Number of Lagrangian Hessian evaluations             = 10
Total CPU secs in IPOPT (w/o function evaluations)   =      0.130
Total CPU secs in NLP function evaluations           =      0.030

EXIT: Optimal Solution Found.
Note: The following floating-point exceptions are signalling: IEEE_UNDERFLOW_FLAG

************************ CUTEst statistics ************************


 Package used            :  IPOPT
 Problem                 :  DTOC2     
 # variables             =            5998
 # constraints           =            3996
 # objective functions   =        0.2500000E+02
 # objective gradients   =        0.1200000E+02
 # objective Hessians    =        0.1100000E+02
 # Hessian-vector prdct  =        0.0000000E+00
 # constraints functions =        0.2600000E+02
 # constraints gradients =        0.1300000E+02
 # constraints Hessians  =        0.1100000E+02
 Exit code               =               0
 Final f                 =   0.5086762E+00
 Set up time             =            0.10 seconds
 Solve time              =            0.31 seconds


******************************************************************

System Time =       0.1430000067 s.
